(set-option :produce-models true)
(set-logic QF_LRA)
(set-info :notes | Strip-packing problem.|)
(declare-fun x0 () Real)
(declare-fun y0 () Real)
(declare-fun x1 () Real)
(declare-fun y1 () Real)
(declare-fun x2 () Real)
(declare-fun y2 () Real)
(declare-fun x3 () Real)
(declare-fun y3 () Real)
(declare-fun x4 () Real)
(declare-fun y4 () Real)
(declare-fun x5 () Real)
(declare-fun y5 () Real)
(declare-fun x6 () Real)
(declare-fun y6 () Real)
(declare-fun x7 () Real)
(declare-fun y7 () Real)
(declare-fun x8 () Real)
(declare-fun y8 () Real)
(declare-fun x9 () Real)
(declare-fun y9 () Real)
(declare-fun x10 () Real)
(declare-fun y10 () Real)
(declare-fun x11 () Real)
(declare-fun y11 () Real)
(declare-fun z () Real)
(declare-fun c () Real)
(assert (and (= c z) (and (>= x0 0) 
(and (>= y0 0) 
(and (>= x1 0) 
(and (>= y1 0) 
(and (>= x2 0) 
(and (>= y2 0) 
(and (>= x3 0) 
(and (>= y3 0) 
(and (>= x4 0) 
(and (>= y4 0) 
(and (>= x5 0) 
(and (>= y5 0) 
(and (>= x6 0) 
(and (>= y6 0) 
(and (>= x7 0) 
(and (>= y7 0) 
(and (>= x8 0) 
(and (>= y8 0) 
(and (>= x9 0) 
(and (>= y9 0) 
(and (>= x10 0) 
(and (>= y10 0) 
(and (>= x11 0) 
(and (>= y11 0) 
(and (>= z 0) 
(and (>= c 0) 
(and (<= (+ x0 0.9068886107) z) 
(and (<= 0.9796335416 y0) 
(and (<= y0 1.73205080757) 
(and (<= x0 (- 3.700915413 0.9068886107)) 
(and (>= x0 0) 
(and (<= (+ x1 0.9877217526) z) 
(and (<= 0.8876011389 y1) 
(and (<= y1 1.73205080757) 
(and (<= x1 (- 3.700915413 0.9877217526)) 
(and (>= x1 0) 
(and (<= (+ x2 0.8613090668) z) 
(and (<= 0.8875564371 y2) 
(and (<= y2 1.73205080757) 
(and (<= x2 (- 3.700915413 0.8613090668)) 
(and (>= x2 0) 
(and (<= (+ x3 0.3378333445) z) 
(and (<= 0.8634214757 y3) 
(and (<= y3 1.73205080757) 
(and (<= x3 (- 3.700915413 0.3378333445)) 
(and (>= x3 0) 
(and (<= (+ x4 0.8015023678) z) 
(and (<= 0.6696905912 y4) 
(and (<= y4 1.73205080757) 
(and (<= x4 (- 3.700915413 0.8015023678)) 
(and (>= x4 0) 
(and (<= (+ x5 0.0601980844) z) 
(and (<= 0.5970541884 y5) 
(and (<= y5 1.73205080757) 
(and (<= x5 (- 3.700915413 0.0601980844)) 
(and (>= x5 0) 
(and (<= (+ x6 0.4643382525) z) 
(and (<= 0.5522490701 y6) 
(and (<= y6 1.73205080757) 
(and (<= x6 (- 3.700915413 0.4643382525)) 
(and (>= x6 0) 
(and (<= (+ x7 0.6071626384) z) 
(and (<= 0.3161357265 y7) 
(and (<= y7 1.73205080757) 
(and (<= x7 (- 3.700915413 0.6071626384)) 
(and (>= x7 0) 
(and (<= (+ x8 0.852598779) z) 
(and (<= 0.2593448011 y8) 
(and (<= y8 1.73205080757) 
(and (<= x8 (- 3.700915413 0.852598779)) 
(and (>= x8 0) 
(and (<= (+ x9 0.7681976429) z) 
(and (<= 0.2424075146 y9) 
(and (<= y9 1.73205080757) 
(and (<= x9 (- 3.700915413 0.7681976429)) 
(and (>= x9 0) 
(and (<= (+ x10 0.6351052776) z) 
(and (<= 0.0448871535 y10) 
(and (<= y10 1.73205080757) 
(and (<= x10 (- 3.700915413 0.6351052776)) 
(and (>= x10 0) 
(and (<= (+ x11 0.5874299168) z) 
(and (<= 0.0036563084 y11) 
(and (<= y11 1.73205080757) 
(and (<= x11 (- 3.700915413 0.5874299168)) 
(and (>= x11 0) 
(and (<= c 3.700915413) 
(and (or (<= (+ x0 0.9068886107) x1) (or (<= (+ x1 0.9877217526) x0) (or (>= (- y0 0.9796335416) y1) (or (>= (- y1 0.8876011389) y0))))) 
(and (or (<= (+ x0 0.9068886107) x2) (or (<= (+ x2 0.8613090668) x0) (or (>= (- y0 0.9796335416) y2) (or (>= (- y2 0.8875564371) y0))))) 
(and (or (<= (+ x0 0.9068886107) x3) (or (<= (+ x3 0.3378333445) x0) (or (>= (- y0 0.9796335416) y3) (or (>= (- y3 0.8634214757) y0))))) 
(and (or (<= (+ x0 0.9068886107) x4) (or (<= (+ x4 0.8015023678) x0) (or (>= (- y0 0.9796335416) y4) (or (>= (- y4 0.6696905912) y0))))) 
(and (or (<= (+ x0 0.9068886107) x5) (or (<= (+ x5 0.0601980844) x0) (or (>= (- y0 0.9796335416) y5) (or (>= (- y5 0.5970541884) y0))))) 
(and (or (<= (+ x0 0.9068886107) x6) (or (<= (+ x6 0.4643382525) x0) (or (>= (- y0 0.9796335416) y6) (or (>= (- y6 0.5522490701) y0))))) 
(and (or (<= (+ x0 0.9068886107) x7) (or (<= (+ x7 0.6071626384) x0) (or (>= (- y0 0.9796335416) y7) (or (>= (- y7 0.3161357265) y0))))) 
(and (or (<= (+ x0 0.9068886107) x8) (or (<= (+ x8 0.852598779) x0) (or (>= (- y0 0.9796335416) y8) (or (>= (- y8 0.2593448011) y0))))) 
(and (or (<= (+ x0 0.9068886107) x9) (or (<= (+ x9 0.7681976429) x0) (or (>= (- y0 0.9796335416) y9) (or (>= (- y9 0.2424075146) y0))))) 
(and (or (<= (+ x0 0.9068886107) x10) (or (<= (+ x10 0.6351052776) x0) (or (>= (- y0 0.9796335416) y10) (or (>= (- y10 0.0448871535) y0))))) 
(and (or (<= (+ x0 0.9068886107) x11) (or (<= (+ x11 0.5874299168) x0) (or (>= (- y0 0.9796335416) y11) (or (>= (- y11 0.0036563084) y0))))) 
(and (or (<= (+ x1 0.9877217526) x2) (or (<= (+ x2 0.8613090668) x1) (or (>= (- y1 0.8876011389) y2) (or (>= (- y2 0.8875564371) y1))))) 
(and (or (<= (+ x1 0.9877217526) x3) (or (<= (+ x3 0.3378333445) x1) (or (>= (- y1 0.8876011389) y3) (or (>= (- y3 0.8634214757) y1))))) 
(and (or (<= (+ x1 0.9877217526) x4) (or (<= (+ x4 0.8015023678) x1) (or (>= (- y1 0.8876011389) y4) (or (>= (- y4 0.6696905912) y1))))) 
(and (or (<= (+ x1 0.9877217526) x5) (or (<= (+ x5 0.0601980844) x1) (or (>= (- y1 0.8876011389) y5) (or (>= (- y5 0.5970541884) y1))))) 
(and (or (<= (+ x1 0.9877217526) x6) (or (<= (+ x6 0.4643382525) x1) (or (>= (- y1 0.8876011389) y6) (or (>= (- y6 0.5522490701) y1))))) 
(and (or (<= (+ x1 0.9877217526) x7) (or (<= (+ x7 0.6071626384) x1) (or (>= (- y1 0.8876011389) y7) (or (>= (- y7 0.3161357265) y1))))) 
(and (or (<= (+ x1 0.9877217526) x8) (or (<= (+ x8 0.852598779) x1) (or (>= (- y1 0.8876011389) y8) (or (>= (- y8 0.2593448011) y1))))) 
(and (or (<= (+ x1 0.9877217526) x9) (or (<= (+ x9 0.7681976429) x1) (or (>= (- y1 0.8876011389) y9) (or (>= (- y9 0.2424075146) y1))))) 
(and (or (<= (+ x1 0.9877217526) x10) (or (<= (+ x10 0.6351052776) x1) (or (>= (- y1 0.8876011389) y10) (or (>= (- y10 0.0448871535) y1))))) 
(and (or (<= (+ x1 0.9877217526) x11) (or (<= (+ x11 0.5874299168) x1) (or (>= (- y1 0.8876011389) y11) (or (>= (- y11 0.0036563084) y1))))) 
(and (or (<= (+ x2 0.8613090668) x3) (or (<= (+ x3 0.3378333445) x2) (or (>= (- y2 0.8875564371) y3) (or (>= (- y3 0.8634214757) y2))))) 
(and (or (<= (+ x2 0.8613090668) x4) (or (<= (+ x4 0.8015023678) x2) (or (>= (- y2 0.8875564371) y4) (or (>= (- y4 0.6696905912) y2))))) 
(and (or (<= (+ x2 0.8613090668) x5) (or (<= (+ x5 0.0601980844) x2) (or (>= (- y2 0.8875564371) y5) (or (>= (- y5 0.5970541884) y2))))) 
(and (or (<= (+ x2 0.8613090668) x6) (or (<= (+ x6 0.4643382525) x2) (or (>= (- y2 0.8875564371) y6) (or (>= (- y6 0.5522490701) y2))))) 
(and (or (<= (+ x2 0.8613090668) x7) (or (<= (+ x7 0.6071626384) x2) (or (>= (- y2 0.8875564371) y7) (or (>= (- y7 0.3161357265) y2))))) 
(and (or (<= (+ x2 0.8613090668) x8) (or (<= (+ x8 0.852598779) x2) (or (>= (- y2 0.8875564371) y8) (or (>= (- y8 0.2593448011) y2))))) 
(and (or (<= (+ x2 0.8613090668) x9) (or (<= (+ x9 0.7681976429) x2) (or (>= (- y2 0.8875564371) y9) (or (>= (- y9 0.2424075146) y2))))) 
(and (or (<= (+ x2 0.8613090668) x10) (or (<= (+ x10 0.6351052776) x2) (or (>= (- y2 0.8875564371) y10) (or (>= (- y10 0.0448871535) y2))))) 
(and (or (<= (+ x2 0.8613090668) x11) (or (<= (+ x11 0.5874299168) x2) (or (>= (- y2 0.8875564371) y11) (or (>= (- y11 0.0036563084) y2))))) 
(and (or (<= (+ x3 0.3378333445) x4) (or (<= (+ x4 0.8015023678) x3) (or (>= (- y3 0.8634214757) y4) (or (>= (- y4 0.6696905912) y3))))) 
(and (or (<= (+ x3 0.3378333445) x5) (or (<= (+ x5 0.0601980844) x3) (or (>= (- y3 0.8634214757) y5) (or (>= (- y5 0.5970541884) y3))))) 
(and (or (<= (+ x3 0.3378333445) x6) (or (<= (+ x6 0.4643382525) x3) (or (>= (- y3 0.8634214757) y6) (or (>= (- y6 0.5522490701) y3))))) 
(and (or (<= (+ x3 0.3378333445) x7) (or (<= (+ x7 0.6071626384) x3) (or (>= (- y3 0.8634214757) y7) (or (>= (- y7 0.3161357265) y3))))) 
(and (or (<= (+ x3 0.3378333445) x8) (or (<= (+ x8 0.852598779) x3) (or (>= (- y3 0.8634214757) y8) (or (>= (- y8 0.2593448011) y3))))) 
(and (or (<= (+ x3 0.3378333445) x9) (or (<= (+ x9 0.7681976429) x3) (or (>= (- y3 0.8634214757) y9) (or (>= (- y9 0.2424075146) y3))))) 
(and (or (<= (+ x3 0.3378333445) x10) (or (<= (+ x10 0.6351052776) x3) (or (>= (- y3 0.8634214757) y10) (or (>= (- y10 0.0448871535) y3))))) 
(and (or (<= (+ x3 0.3378333445) x11) (or (<= (+ x11 0.5874299168) x3) (or (>= (- y3 0.8634214757) y11) (or (>= (- y11 0.0036563084) y3))))) 
(and (or (<= (+ x4 0.8015023678) x5) (or (<= (+ x5 0.0601980844) x4) (or (>= (- y4 0.6696905912) y5) (or (>= (- y5 0.5970541884) y4))))) 
(and (or (<= (+ x4 0.8015023678) x6) (or (<= (+ x6 0.4643382525) x4) (or (>= (- y4 0.6696905912) y6) (or (>= (- y6 0.5522490701) y4))))) 
(and (or (<= (+ x4 0.8015023678) x7) (or (<= (+ x7 0.6071626384) x4) (or (>= (- y4 0.6696905912) y7) (or (>= (- y7 0.3161357265) y4))))) 
(and (or (<= (+ x4 0.8015023678) x8) (or (<= (+ x8 0.852598779) x4) (or (>= (- y4 0.6696905912) y8) (or (>= (- y8 0.2593448011) y4))))) 
(and (or (<= (+ x4 0.8015023678) x9) (or (<= (+ x9 0.7681976429) x4) (or (>= (- y4 0.6696905912) y9) (or (>= (- y9 0.2424075146) y4))))) 
(and (or (<= (+ x4 0.8015023678) x10) (or (<= (+ x10 0.6351052776) x4) (or (>= (- y4 0.6696905912) y10) (or (>= (- y10 0.0448871535) y4))))) 
(and (or (<= (+ x4 0.8015023678) x11) (or (<= (+ x11 0.5874299168) x4) (or (>= (- y4 0.6696905912) y11) (or (>= (- y11 0.0036563084) y4))))) 
(and (or (<= (+ x5 0.0601980844) x6) (or (<= (+ x6 0.4643382525) x5) (or (>= (- y5 0.5970541884) y6) (or (>= (- y6 0.5522490701) y5))))) 
(and (or (<= (+ x5 0.0601980844) x7) (or (<= (+ x7 0.6071626384) x5) (or (>= (- y5 0.5970541884) y7) (or (>= (- y7 0.3161357265) y5))))) 
(and (or (<= (+ x5 0.0601980844) x8) (or (<= (+ x8 0.852598779) x5) (or (>= (- y5 0.5970541884) y8) (or (>= (- y8 0.2593448011) y5))))) 
(and (or (<= (+ x5 0.0601980844) x9) (or (<= (+ x9 0.7681976429) x5) (or (>= (- y5 0.5970541884) y9) (or (>= (- y9 0.2424075146) y5))))) 
(and (or (<= (+ x5 0.0601980844) x10) (or (<= (+ x10 0.6351052776) x5) (or (>= (- y5 0.5970541884) y10) (or (>= (- y10 0.0448871535) y5))))) 
(and (or (<= (+ x5 0.0601980844) x11) (or (<= (+ x11 0.5874299168) x5) (or (>= (- y5 0.5970541884) y11) (or (>= (- y11 0.0036563084) y5))))) 
(and (or (<= (+ x6 0.4643382525) x7) (or (<= (+ x7 0.6071626384) x6) (or (>= (- y6 0.5522490701) y7) (or (>= (- y7 0.3161357265) y6))))) 
(and (or (<= (+ x6 0.4643382525) x8) (or (<= (+ x8 0.852598779) x6) (or (>= (- y6 0.5522490701) y8) (or (>= (- y8 0.2593448011) y6))))) 
(and (or (<= (+ x6 0.4643382525) x9) (or (<= (+ x9 0.7681976429) x6) (or (>= (- y6 0.5522490701) y9) (or (>= (- y9 0.2424075146) y6))))) 
(and (or (<= (+ x6 0.4643382525) x10) (or (<= (+ x10 0.6351052776) x6) (or (>= (- y6 0.5522490701) y10) (or (>= (- y10 0.0448871535) y6))))) 
(and (or (<= (+ x6 0.4643382525) x11) (or (<= (+ x11 0.5874299168) x6) (or (>= (- y6 0.5522490701) y11) (or (>= (- y11 0.0036563084) y6))))) 
(and (or (<= (+ x7 0.6071626384) x8) (or (<= (+ x8 0.852598779) x7) (or (>= (- y7 0.3161357265) y8) (or (>= (- y8 0.2593448011) y7))))) 
(and (or (<= (+ x7 0.6071626384) x9) (or (<= (+ x9 0.7681976429) x7) (or (>= (- y7 0.3161357265) y9) (or (>= (- y9 0.2424075146) y7))))) 
(and (or (<= (+ x7 0.6071626384) x10) (or (<= (+ x10 0.6351052776) x7) (or (>= (- y7 0.3161357265) y10) (or (>= (- y10 0.0448871535) y7))))) 
(and (or (<= (+ x7 0.6071626384) x11) (or (<= (+ x11 0.5874299168) x7) (or (>= (- y7 0.3161357265) y11) (or (>= (- y11 0.0036563084) y7))))) 
(and (or (<= (+ x8 0.852598779) x9) (or (<= (+ x9 0.7681976429) x8) (or (>= (- y8 0.2593448011) y9) (or (>= (- y9 0.2424075146) y8))))) 
(and (or (<= (+ x8 0.852598779) x10) (or (<= (+ x10 0.6351052776) x8) (or (>= (- y8 0.2593448011) y10) (or (>= (- y10 0.0448871535) y8))))) 
(and (or (<= (+ x8 0.852598779) x11) (or (<= (+ x11 0.5874299168) x8) (or (>= (- y8 0.2593448011) y11) (or (>= (- y11 0.0036563084) y8))))) 
(and (or (<= (+ x9 0.7681976429) x10) (or (<= (+ x10 0.6351052776) x9) (or (>= (- y9 0.2424075146) y10) (or (>= (- y10 0.0448871535) y9))))) 
(and (or (<= (+ x9 0.7681976429) x11) (or (<= (+ x11 0.5874299168) x9) (or (>= (- y9 0.2424075146) y11) (or (>= (- y11 0.0036563084) y9))))) 
(and (or (<= (+ x10 0.6351052776) x11) (or (<= (+ x11 0.5874299168) x10) (or (>= (- y10 0.0448871535) y11) (or (>= (- y11 0.0036563084) y10))))) )))))))))))))))))))))))))))))))))))))))))))))))))))))))))))))))))))))))))))))))))))))))))))))))))))))))))))))))))))))))))))))))))))))))))))))))))))))))))))
(minimize c)
(check-sat)
(get-objectives)
(exit)
